BEGIN IONS
PEPMASS=1649.45
CHARGE=1
MSLEVEL=2
SOURCE_INSTRUMENT=LC-ESI-qTof
FILENAME=f.SoniaMaffioli/reference_spectra/reference_spectra/892ce4e2-c4bb-4eea-8360-badeff88251c.mgf;
SEQ=*..*
IONMODE=Positive
ORGANISM=GNPS-LIBRARY
NAME=Siomycin_A/Sporangiomycin M+H
PI=Maffioli/NAICONS
DATACOLLECTOR=Zdouc_M
SMILES=O=C(C(NC(C1=CSC([C@]2(CCC(C3=NC(C(NC(C(NC(C(N)=O)=C)=O)=C)=O)=CS3)=N[C@@H]2C4=CSC(C(NC(C5=CSC(C(NC6=O)[C@@](C)([C@H](O)C)O)=N5)=O)[C@H](OC(C7=NC8=C(C([C@H](O)C)=C7)C=C[C@@H](N[C@H](C(NC(C(NC(C(N[C@]9(C)[H])=O)=C)=O)=C)=O)C(C)C)[C@@H]8O)=O)C)=N4)NC9=O)=N1)=O)C(O)C)N/C(C%10=N[C@@H]6CS%10)=C\C
INCHI=AKFVOKPQHFBYCA-FHNUDCAGSA-N
INCHIAUX=N/A
PUBMED=33496580
SUBMITUSER=SoniaMaffioli
LIBRARYQUALITY=3
SPECTRUMID=CCMSLIB00005716851
SCANS=1
172.073334	80.0
190.080322	201.0
193.05426	117.0
234.07106	493.0
238.124908	53.0
243.146622	568.0
244.150009	137.0
248.081573	51.0
254.126617	56.0
261.156403	313.0
271.136536	73.0
287.135376	325.0
305.145782	284.0
333.128418	64.0
335.041229	73.0
340.161713	218.0
356.154663	101.0
358.177368	58.0
360.074463	66.0
389.045959	51.0
396.114685	89.0
397.090698	59.0
402.156708	235.0
411.066498	52.0
414.118195	76.0
418.12326	57.0
427.112671	51.0
428.043365	53.0
430.068573	219.0
431.060272	63.0
440.05249	63.0
441.068481	124.0
453.174255	59.0
458.058685	66.0
459.070984	669.0
460.06665	253.0
461.073914	174.0
471.164154	73.0
474.148743	68.0
475.070129	52.0
476.095856	79.0
480.207428	53.0
487.05249	54.0
498.103577	59.0
499.097839	64.0
500.106201	51.0
502.109161	56.0
509.078247	63.0
511.105377	135.0
513.119446	78.0
516.107971	237.0
517.12207	69.0
518.118225	67.0
518.455017	53.0
519.118408	57.0
526.082397	134.0
527.07135	56.0
528.104675	73.0
529.108459	529.0
530.104675	156.0
531.107788	78.0
532.102722	56.0
537.137695	80.0
541.230286	72.0
542.213196	60.0
544.105103	204.0
545.114075	99.0
546.121948	67.0
547.121399	2792.0
547.686401	77.0
548.120605	1095.0
549.123962	472.0
550.121887	245.0
562.120239	54.0
564.139404	289.0
565.148376	224.0
566.159119	52.0
571.131531	50.0
590.159363	54.0
611.072876	63.0
616.140198	135.0
629.185669	65.0
643.186951	69.0
644.143738	61.0
647.109619	60.0
668.169434	60.0
680.135742	72.0
682.117798	66.0
685.143677	82.0
687.16095	73.0
688.188477	89.0
692.133118	84.0
693.151245	63.0
694.145752	52.0
713.151489	50.0
716.193787	54.0
729.146912	54.0
738.137512	52.0
739.180237	182.0
740.165588	65.0
741.180908	52.0
744.192566	56.0
751.146179	57.0
762.178772	97.0
763.160645	70.0
768.170715	72.0
771.147644	96.0
780.177002	652.0
781.195923	278.0
782.187744	253.0
788.175476	61.0
806.129944	51.0
826.184937	73.0
851.260925	141.0
852.275879	62.0
853.250854	91.0
863.127075	53.0
864.104004	63.0
872.137634	63.0
880.148804	52.0
897.178772	81.0
907.1521	54.0
908.159973	60.0
909.183044	69.0
916.146973	65.0
922.158386	57.0
926.173584	57.0
928.235229	53.0
930.222778	90.0
933.14856	116.0
934.155518	101.0
935.149475	114.0
936.148132	110.0
941.128906	58.0
942.138062	67.0
951.221252	82.0
953.157043	56.0
957.174072	51.0
958.163879	101.0
959.157898	71.0
960.17749	122.0
961.1698	58.0
965.270935	54.0
968.133911	67.0
969.191895	59.0
970.197449	83.0
974.182983	70.0
976.146301	79.0
977.182434	109.0
984.151672	102.0
985.162231	96.0
986.159546	153.0
987.148376	109.0
988.425781	65.0
989.174133	67.0
992.513123	50.0
994.221924	52.0
995.591125	57.0
996.217712	53.0
1001.205566	112.0
1002.165222	52.0
1003.185059	163.0
1004.177856	191.0
1005.174072	174.0
1006.173035	60.0
1007.207336	104.0
1011.174194	86.0
1012.806458	56.0
1014.186646	66.0
1017.248108	80.0
1018.162476	58.0
1019.188721	204.0
1020.193298	104.0
1021.178467	120.0
1022.191223	180.0
1023.204712	92.0
1026.196777	66.0
1028.199585	124.0
1029.214355	105.0
1030.196655	156.0
1031.170898	61.0
1038.175659	82.0
1040.196411	73.0
1045.198486	51.0
1046.214233	129.0
1047.2052	109.0
1048.223877	119.0
1052.218384	81.0
1054.198364	162.0
1055.174561	86.0
1056.197876	136.0
1057.199219	101.0
1058.258545	58.0
1062.233154	115.0
1063.202148	88.0
1064.235962	138.0
1065.222412	80.0
1066.2146	109.0
1070.189941	62.0
1071.236694	109.0
1072.203125	317.0
1073.203125	244.0
1074.214844	171.0
1075.207275	139.0
1078.365112	51.0
1082.222168	78.0
1083.235596	86.0
1085.259399	63.0
1088.288086	100.0
1089.245361	183.0
1090.222534	451.0
1091.219727	209.0
1092.217651	273.0
1093.227783	107.0
1094.203369	72.0
1097.244263	115.0
1098.219971	113.0
1099.214111	99.0
1100.200562	60.0
1101.185547	95.0
1102.125122	64.0
1107.23584	396.0
1107.428345	82.0
1108.22168	336.0
1109.242432	181.0
1110.243286	66.0
1112.232178	58.0
1115.251831	247.0
1116.226685	287.0
1117.234375	310.0
1118.238647	98.0
1120.259399	53.0
1121.217896	55.0
1124.211792	155.0
1125.243286	79.0
1126.22937	241.0
1127.217285	139.0
1128.21814	66.0
1131.25647	109.0
1133.271362	173.0
1134.256226	131.0
1141.225098	71.0
1142.247803	112.0
1143.240112	206.0
1144.240601	220.0
1145.226074	101.0
1146.21875	98.0
1151.253174	114.0
1158.249023	148.0
1159.235962	259.0
1160.258667	239.0
1161.244629	377.0
1162.25293	143.0
1163.266724	95.0
1164.27124	50.0
1166.218018	58.0
1167.26062	96.0
1168.231567	93.0
1169.239746	123.0
1170.237549	58.0
1176.667969	56.0
1177.209717	61.0
1178.278809	192.0
1179.286011	130.0
1180.276611	162.0
1181.27124	67.0
1183.266602	95.0
1184.27063	153.0
1185.246216	83.0
1186.25061	278.0
1187.258667	226.0
1190.240967	51.0
1192.266602	56.0
1193.240967	74.0
1194.25293	200.0
1195.250732	147.0
1196.236328	88.0
1200.286377	105.0
1201.278687	72.0
1202.270508	275.0
1203.293213	274.0
1204.275146	157.0
1204.596436	52.0
1205.289551	163.0
1206.257446	97.0
1210.272705	143.0
1211.259521	349.0
1212.261353	589.0
1212.564941	53.0
1213.255615	383.0
1214.251465	153.0
1215.238892	87.0
1219.285034	94.0
1221.294556	51.0
1227.274414	53.0
1228.29541	57.0
1229.290771	316.0
1230.281616	532.0
1231.275513	208.0
1232.287964	160.0
1233.281128	94.0
1244.265015	51.0
1247.300415	1175.0
1248.308716	859.0
1249.292969	473.0
1250.304932	235.0
1251.312988	58.0
1252.312256	58.0
1254.265381	96.0
1255.276733	80.0
1256.284912	108.0
1257.245239	69.0
1262.265991	66.0
1263.268799	120.0
1264.286865	97.0
1265.249634	81.0
1266.265991	66.0
1271.312134	90.0
1272.317871	198.0
1273.305786	64.0
1280.272339	51.0
1280.836548	66.0
1281.29895	355.0
1282.280151	200.0
1283.296997	165.0
1284.312744	79.0
1288.277466	62.0
1289.318604	52.0
1298.287964	101.0
1299.287964	389.0
1300.293091	264.0
1301.304688	213.0
1302.308472	92.0
1303.279663	90.0
1316.313354	266.0
1317.332031	184.0
1318.316284	209.0
1319.319458	59.0
1325.637573	50.0
1341.362427	65.0
1379.32251	62.0
1397.367798	83.0
1399.343994	57.0
1412.393066	70.0
1415.393555	92.0
1416.427734	56.0
1418.416626	56.0
1459.402222	55.0
1465.967651	58.0
1499.455811	69.0
1500.374146	51.0
1515.364624	64.0
1526.350098	54.0
1545.418091	60.0
1560.375366	71.0
1561.390015	58.0
1562.415405	84.0
1563.398926	89.0
1564.423706	79.0
1568.435669	76.0
1587.461914	111.0
1593.839355	55.0
1604.439087	76.0
1605.429565	62.0
1606.436523	102.0
1612.41626	123.0
1613.43457	100.0
1614.428101	78.0
1620.435425	137.0
1621.442871	107.0
1622.452881	77.0
1630.441895	204.0
1631.431152	282.0
1632.420654	157.0
1633.412964	166.0
1634.448486	108.0
1648.448242	5646.0
1649.452515	5121.0
1649.906738	107.0
1650.451416	3276.0
1650.89917	83.0
1651.440063	1598.0
1652.443237	667.0
1653.442261	178.0
1654.411133	69.0
1699.937988	52.0
END IONS


BEGIN IONS
PEPMASS=1510.42
CHARGE=1
MSLEVEL=2
SOURCE_INSTRUMENT=LC-ESI-qTof
FILENAME=f.SoniaMaffioli/reference_spectra/reference_spectra/de8feff7-dd04-47ab-a8a4-1f7442f05f82.mgf;
SEQ=*..*
IONMODE=Positive
ORGANISM=GNPS-LIBRARY
NAME=Siomycin_B M+H
PI=Maffioli/NAICONS
DATACOLLECTOR=Zdouc_M
SMILES=O=C(C(NC(C1=CSC([C@]2(CCC(C3=NC(C(N)=O)=CS3)=N[C@@H]2C4=CSC(C(NC(C5=CSC(C(NC6=O)[C@@](C)([C@H](O)C)O)=N5)=O)[C@H](OC(C7=NC8=C(C([C@H](O)C)=C7)C=C[C@@H](N[C@H](C(NC(C(NC(C(N[C@]9(C)[H])=O)=C)=O)=C)=O)C(C)C)[C@@H]8O)=O)C)=N4)NC9=O)=N1)=O)C(O)C)N/C(C%10=N[C@@H]6CS%10)=C\C
INCHI=STTJBBWRTRUGII-PRLQUHOOSA-N
INCHIAUX=N/A
PUBMED=33496580
SUBMITUSER=SoniaMaffioli
LIBRARYQUALITY=3
SPECTRUMID=CCMSLIB00005716852
SCANS=1
190.088745	91.0
234.071121	127.0
243.148621	114.0
261.15918	141.0
305.14563	148.0
378.062775	91.0
380.060822	65.0
381.076172	54.0
459.065735	117.0
460.096924	52.0
529.100708	82.0
547.118652	730.0
548.130066	188.0
549.115112	120.0
550.114197	65.0
568.949158	56.0
780.193481	177.0
846.110474	57.0
849.132874	54.0
882.157471	56.0
889.146362	57.0
924.199829	60.0
934.167358	76.0
935.165344	66.0
936.230774	52.0
951.161133	81.0
952.17926	77.0
954.183289	52.0
969.200806	80.0
970.209229	54.0
993.233643	61.0
1003.208191	66.0
1004.193359	53.0
1021.192017	93.0
1022.202881	115.0
1046.192749	51.0
1047.227417	74.0
1048.222656	58.0
1055.222046	51.0
1064.224487	93.0
1065.220581	85.0
1073.201782	75.0
1074.215942	181.0
1075.250244	59.0
1082.274658	63.0
1091.240845	87.0
1092.244751	89.0
1093.218628	73.0
1109.26416	372.0
1110.259277	196.0
1111.27063	100.0
1112.244019	60.0
1118.225708	69.0
1133.236206	76.0
1142.241577	54.0
1144.245728	112.0
1160.240845	63.0
1161.266479	118.0
1162.258911	69.0
1178.272339	62.0
1180.260498	87.0
1368.87439	53.0
1422.307617	51.0
1492.411743	90.0
1510.429077	1042.0
1511.422607	771.0
1512.426636	759.0
1513.421997	266.0
1514.433838	103.0
1518.659668	53.0
END IONS


BEGIN IONS
PEPMASS=824.739
CHARGE=2
MSLEVEL=2
SOURCE_INSTRUMENT=LC-ESI-qTof
FILENAME=f.SoniaMaffioli/reference_spectra/reference_spectra/4b909674-1be7-4fe8-a89e-b4a62fa8bf2b.mgf;
SEQ=*..*
IONMODE=Positive
ORGANISM=GNPS-LIBRARY
NAME=Siomycin_A/Sporangiomycin M+2H
PI=Maffioli/NAICONS
DATACOLLECTOR=Zdouc_M
SMILES=O=C(C(NC(C1=CSC([C@]2(CCC(C3=NC(C(NC(C(NC(C(N)=O)=C)=O)=C)=O)=CS3)=N[C@@H]2C4=CSC(C(NC(C5=CSC(C(NC6=O)[C@@](C)([C@H](O)C)O)=N5)=O)[C@H](OC(C7=NC8=C(C([C@H](O)C)=C7)C=C[C@@H](N[C@H](C(NC(C(NC(C(N[C@]9(C)[H])=O)=C)=O)=C)=O)C(C)C)[C@@H]8O)=O)C)=N4)NC9=O)=N1)=O)C(O)C)N/C(C%10=N[C@@H]6CS%10)=C\C
INCHI=AKFVOKPQHFBYCA-FHNUDCAGSA-N
INCHIAUX=N/A
PUBMED=33496580
SUBMITUSER=SoniaMaffioli
LIBRARYQUALITY=3
SPECTRUMID=CCMSLIB00005716853
SCANS=1
141.040451	53.0
165.066971	353.0
169.040741	139.0
177.160736	58.0
182.084946	54.0
186.070358	74.0
188.06636	665.0
189.069565	106.0
193.056961	373.0
194.065948	101.0
199.084473	52.0
206.076584	874.0
207.080139	166.0
211.057556	58.0
212.136856	62.0
216.063934	796.0
217.064087	95.0
221.095718	79.0
226.060898	215.0
233.075012	53.0
233.844482	68.0
234.074539	7055.0
235.076904	966.0
236.069901	107.0
237.0448	88.0
238.119507	219.0
239.050766	57.0
239.119324	84.0
241.131088	114.0
243.145996	428.0
244.144897	99.0
247.071945	74.0
248.031143	72.0
250.057861	72.0
251.106689	78.0
259.13205	128.0
260.072052	66.0
269.128632	376.0
270.137756	74.0
274.041473	74.0
275.04425	110.0
279.02774	78.0
287.137726	2911.0
288.141235	495.0
289.155853	79.0
303.045563	110.0
304.05304	78.0
305.147949	3963.0
306.054993	59.0
306.151978	514.0
307.148163	117.0
308.056335	193.0
309.046967	81.0
317.053925	83.0
318.056152	70.0
319.054321	80.0
320.053864	55.0
321.070068	56.0
325.032196	67.0
326.074677	84.0
327.040833	127.0
331.066895	79.0
333.074707	110.0
333.536469	57.0
334.058197	87.0
336.057007	128.0
339.04007	77.0
340.064117	63.0
340.175415	55.0
341.053986	106.0
342.039368	67.0
347.038452	55.0
348.049805	57.0
349.180664	51.0
353.055054	68.0
353.557892	57.0
356.136993	64.0
357.071136	58.0
360.069733	138.0
361.059174	176.0
362.051056	112.0
364.060638	58.0
365.09726	58.0
366.141205	53.0
374.03656	96.0
376.035339	95.0
377.032257	63.0
378.070892	288.0
379.063873	180.0
379.529236	66.0
380.050598	66.0
382.067413	106.0
384.151245	288.0
385.059662	68.0
386.070496	77.0
386.547058	55.0
387.06543	112.0
388.05191	148.0
389.043518	106.0
390.057343	54.0
394.032532	58.0
396.069427	68.0
397.054535	53.0
399.099915	99.0
399.551575	63.0
401.092682	94.0
401.553558	114.0
402.164795	752.0
403.054382	70.0
403.165985	186.0
404.066803	71.0
404.166565	88.0
405.082947	57.0
407.061829	73.0
407.572205	98.0
410.047546	128.0
411.056305	83.0
412.052124	111.0
413.05365	65.0
414.056824	75.0
415.065338	81.0
416.088165	83.0
417.064575	79.0
418.080566	65.0
420.081757	82.0
421.061462	99.0
422.085602	70.0
424.097778	62.0
427.042542	69.0
428.066376	56.0
430.060822	500.0
431.072327	303.0
432.076935	82.0
433.063751	99.0
435.080231	73.0
436.072571	62.0
438.055389	50.0
440.058167	83.0
442.052155	113.0
443.064392	84.0
444.083832	85.0
444.574585	95.0
445.085175	148.0
445.570648	87.0
446.579651	81.0
447.081848	86.0
449.084015	112.0
450.047302	58.0
450.567352	57.0
451.10141	119.0
454.083099	80.0
454.167694	112.0
455.065613	52.0
457.060852	183.0
458.066071	145.0
459.068604	1254.0
460.070526	523.0
461.075897	171.0
462.065063	101.0
463.106812	63.0
465.580048	74.0
468.072205	93.0
469.080719	108.0
470.09906	64.0
471.187775	57.0
473.115295	53.0
474.075104	61.0
475.603729	50.0
476.111053	87.0
477.089203	62.0
479.068268	58.0
481.081879	84.0
482.111877	76.0
483.060303	75.0
484.124268	73.0
485.076508	159.0
488.101257	63.0
488.583618	71.0
490.105072	73.0
493.049408	60.0
494.081818	154.0
495.088776	123.0
496.124878	97.0
497.084869	95.0
498.094788	116.0
500.08902	81.0
501.112488	133.0
502.090729	68.0
503.093536	107.0
505.098083	105.0
506.598236	82.0
508.12619	59.0
510.091064	64.0
511.09903	177.0
512.091797	107.0
513.110535	61.0
518.155457	56.0
521.095276	70.0
522.107178	66.0
523.60083	53.0
524.068909	122.0
525.119751	53.0
526.127075	52.0
527.075745	79.0
528.13092	172.0
529.11554	410.0
529.473145	51.0
530.093689	183.0
531.107361	66.0
531.630066	53.0
533.104858	54.0
534.107483	65.0
535.069702	57.0
537.115845	93.0
537.632568	87.0
538.094238	102.0
539.120911	55.0
541.132996	50.0
542.120361	64.0
543.108704	86.0
545.115173	89.0
547.123291	1377.0
548.122864	587.0
549.116943	492.0
550.113647	100.0
550.61322	150.0
551.113098	51.0
551.610291	54.0
552.112366	58.0
553.106384	60.0
554.110291	98.0
554.619751	62.0
555.119385	71.0
555.636902	234.0
556.106445	93.0
558.111328	51.0
558.612061	118.0
559.124939	147.0
561.117676	69.0
561.634094	62.0
563.115906	107.0
563.615356	137.0
564.136719	260.0
565.095886	70.0
566.099182	65.0
567.132019	130.0
567.644226	148.0
568.130188	80.0
568.632751	114.0
571.111877	70.0
571.625061	115.0
572.134583	205.0
572.606873	127.0
573.123901	109.0
574.118652	50.0
575.094604	72.0
576.093872	81.0
579.120422	65.0
579.63324	156.0
581.13324	438.0
581.623901	262.0
582.12439	191.0
582.620361	105.0
583.112549	99.0
584.11908	140.0
584.63623	132.0
585.104248	79.0
585.618225	76.0
589.629761	94.0
590.105408	64.0
590.638916	71.0
593.12146	136.0
593.64032	184.0
594.132507	194.0
594.631775	81.0
595.115967	68.0
597.123535	81.0
598.14093	77.0
598.623718	195.0
599.153992	83.0
601.661316	86.0
602.155518	112.0
602.636475	137.0
604.090942	148.0
605.128235	52.0
606.651428	102.0
607.135071	352.0
607.634277	233.0
608.145081	127.0
609.113098	115.0
610.637451	81.0
611.133057	52.0
612.728149	50.0
613.138123	54.0
615.112427	68.0
615.642029	258.0
616.1521	164.0
616.634399	97.0
617.132385	105.0
618.656677	78.0
619.109924	51.0
620.12793	58.0
621.111145	81.0
624.156982	127.0
627.637451	107.0
628.639893	56.0
629.122559	80.0
630.105225	57.0
633.135437	55.0
634.135376	78.0
636.661621	91.0
641.642517	179.0
642.149902	124.0
642.661255	97.0
648.113525	51.0
650.146729	160.0
656.171997	51.0
657.182312	88.0
660.023682	59.0
666.682495	105.0
667.082458	67.0
668.125122	77.0
680.102295	71.0
683.68689	70.0
685.193054	66.0
687.116089	64.0
689.169617	70.0
700.179199	51.0
701.130432	52.0
707.145691	75.0
714.125183	50.0
714.688904	77.0
715.143921	87.0
716.187134	62.0
717.070862	64.0
719.099548	65.0
719.19812	70.0
720.182373	59.0
720.361267	54.0
723.127625	53.0
724.17981	164.0
725.186035	108.0
730.084045	88.0
732.163879	104.0
733.203369	88.0
733.706848	119.0
741.197205	73.0
741.701294	71.0
742.233521	63.0
746.199036	70.0
747.194397	85.0
748.186157	79.0
749.113708	53.0
749.708496	58.0
750.169006	51.0
750.691345	60.0
751.185364	58.0
756.20282	71.0
758.121765	54.0
758.734253	78.0
759.197815	243.0
759.731689	90.0
760.197021	91.0
763.713379	100.0
765.18573	55.0
767.705994	193.0
768.204102	117.0
770.71106	55.0
771.082397	59.0
771.738525	51.0
772.72113	95.0
773.205811	65.0
777.172119	56.0
780.191467	186.0
781.195312	117.0
781.713013	87.0
782.224426	106.0
785.207336	78.0
794.216492	82.0
798.691406	61.0
802.234192	53.0
807.721252	67.0
812.123474	56.0
816.207275	82.0
816.733582	62.0
824.49823	73.0
843.102173	54.0
846.118835	71.0
853.125793	52.0
873.137573	77.0
883.158386	55.0
888.140076	66.0
908.711365	51.0
925.871765	54.0
935.167236	53.0
983.572571	52.0
987.184143	98.0
1004.175842	80.0
1009.716797	55.0
1021.204468	84.0
1022.209106	98.0
1029.18396	57.0
1065.223267	53.0
1090.210205	69.0
1093.22644	61.0
1110.22644	78.0
1135.246826	52.0
1143.251953	84.0
1161.253784	68.0
1162.263184	125.0
1164.245605	63.0
1179.299072	65.0
1185.208984	54.0
1195.239136	103.0
1213.26062	192.0
1230.290405	211.0
1231.286011	102.0
1232.272339	54.0
1233.299194	50.0
1247.311035	113.0
1249.278687	74.0
1283.362671	55.0
1299.292236	122.0
1300.330078	97.0
1316.324829	61.0
END IONS


BEGIN IONS
PEPMASS=755.714
CHARGE=2
MSLEVEL=2
SOURCE_INSTRUMENT=LC-ESI-qTof
FILENAME=f.SoniaMaffioli/reference_spectra/reference_spectra/46ac51c6-e522-47fe-ac02-f0c96f9a8c18.mgf;
SEQ=*..*
IONMODE=Positive
ORGANISM=GNPS-LIBRARY
NAME=Siomycin_B M+2H
PI=Maffioli/NAICONS
DATACOLLECTOR=Zdouc_M
SMILES=O=C(C(NC(C1=CSC([C@]2(CCC(C3=NC(C(N)=O)=CS3)=N[C@@H]2C4=CSC(C(NC(C5=CSC(C(NC6=O)[C@@](C)([C@H](O)C)O)=N5)=O)[C@H](OC(C7=NC8=C(C([C@H](O)C)=C7)C=C[C@@H](N[C@H](C(NC(C(NC(C(N[C@]9(C)[H])=O)=C)=O)=C)=O)C(C)C)[C@@H]8O)=O)C)=N4)NC9=O)=N1)=O)C(O)C)N/C(C%10=N[C@@H]6CS%10)=C\C
INCHI=STTJBBWRTRUGII-PRLQUHOOSA-N
INCHIAUX=N/A
PUBMED=33496580
SUBMITUSER=SoniaMaffioli
LIBRARYQUALITY=3
SPECTRUMID=CCMSLIB00005716854
SCANS=1
188.069412	266.0
193.062088	148.0
195.026382	51.0
206.07695	195.0
207.09436	50.0
216.062744	149.0
217.061996	70.0
226.063278	84.0
234.073288	1800.0
235.07576	306.0
238.11821	93.0
241.126511	79.0
243.142242	116.0
252.07666	58.0
259.134674	54.0
269.120331	50.0
278.046875	73.0
279.041626	53.0
287.134094	607.0
288.14032	126.0
292.039948	65.0
305.029633	73.0
305.147827	689.0
306.151764	198.0
307.041412	53.0
311.823456	59.0
320.041321	69.0
322.055664	88.0
346.061676	61.0
359.068024	75.0
360.074829	79.0
371.594543	65.0
378.065826	201.0
379.084351	90.0
384.14621	145.0
402.164581	89.0
431.076538	59.0
442.055481	81.0
457.051331	58.0
459.066559	465.0
460.075928	166.0
461.070435	75.0
486.063416	75.0
487.057953	58.0
502.594299	51.0
509.075562	50.0
511.092316	136.0
518.091797	55.0
523.672852	50.0
529.112671	67.0
530.111084	65.0
537.119629	59.0
541.131897	51.0
546.616028	51.0
547.121582	262.0
548.125122	137.0
549.142151	65.0
564.125183	50.0
567.124084	100.0
574.111572	55.0
576.062744	53.0
581.134521	74.0
724.708679	52.0
747.197144	64.0
753.471741	59.0
780.169617	84.0
790.247559	50.0
825.315369	54.0
1143.252319	54.0
1161.27417	59.0
1178.270874	80.0
END IONS


BEGIN IONS
PEPMASS=832.739
CHARGE=2
MSLEVEL=2
SOURCE_INSTRUMENT=LC-ESI-qTof
FILENAME=f.SoniaMaffioli/reference_spectra/reference_spectra/36291d9c-491e-4eb1-a907-dcbcb9629d62.mgf;
SEQ=*..*
IONMODE=Positive
ORGANISM=GNPS-LIBRARY
NAME=Siomycin_C M+H
PI=Maffioli/NAICONS
DATACOLLECTOR=Zdouc_M
SMILES=O=C(N/C(C(SC1)=N[C@]21[H])=C\C)C([C@@](C)([H])O)NC(C3=CSC(C(NC4=O)(CC5)[C@@H](C6=CSC(C([C@@H](C)OC(C7=NC([C@@H](O)[C@@H]8NC(C(C)C)C(NC(C(NC(C(N[C@]4([H])C)=O)=C)=O)=C)=O)=C(C=C8)C([C@H](C)O)=C7)=O)NC(C9=CSC([C@@]([C@](O)(C)[C@@](C)([H])O)([H])NC2=O)=N9)=O)=N6)N=C5C%10=NC(C(NC(C(NC(C(OC)=O)=C)=O)=C)=O)=CS%10)=N3)=O
INCHI=GJTQKLKJLXFSOM-STMGPROQSA-N
INCHIAUX=N/A
PUBMED=33496580
SUBMITUSER=SoniaMaffioli
LIBRARYQUALITY=3
SPECTRUMID=CCMSLIB00005716855
SCANS=1
141.060928	26.0
143.064407	21.0
154.0952	23.0
169.094543	26.0
170.039352	33.0
172.042557	24.0
177.099915	21.0
184.073776	25.0
190.9189	29.0
206.076553	40.0
216.061218	34.0
218.077744	22.0
234.071442	264.0
237.095367	23.0
249.269577	22.0
251.069168	25.0
271.131317	31.0
287.145416	56.0
289.492432	35.0
291.025604	43.0
305.079803	30.0
306.145935	38.0
329.173615	33.0
333.126068	20.0
343.071228	23.0
344.078278	29.0
348.142578	28.0
353.033142	28.0
399.045868	25.0
404.081757	21.0
417.74585	22.0
422.145111	22.0
427.878143	32.0
435.144104	20.0
448.102417	27.0
448.230438	32.0
458.070038	22.0
459.076111	21.0
462.037933	21.0
471.175354	22.0
483.276306	24.0
501.117676	21.0
508.151855	22.0
529.118713	23.0
532.152466	22.0
547.189819	23.0
560.323914	24.0
567.507874	28.0
569.63385	27.0
573.492798	28.0
574.475037	40.0
575.492493	53.0
584.345154	27.0
589.201965	35.0
590.13916	30.0
594.013306	20.0
619.982727	24.0
628.608948	31.0
644.174194	36.0
649.617615	39.0
660.114319	33.0
761.208496	24.0
817.421814	29.0
917.161499	29.0
957.423584	41.0
1002.60437	26.0
1020.169556	22.0
1079.567505	21.0
1229.32312	28.0
1300.287354	21.0
END IONS


BEGIN IONS
PEPMASS=817.729
CHARGE=2
MSLEVEL=2
SOURCE_INSTRUMENT=LC-ESI-qTof
FILENAME=f.SoniaMaffioli/reference_spectra/reference_spectra/af2324a3-5f95-4ae3-b7f2-740b8634eeaa.mgf;
SEQ=*..*
IONMODE=Positive
ORGANISM=GNPS-LIBRARY
NAME=Siomycin_D1 M+H
PI=Maffioli/NAICONS
DATACOLLECTOR=Zdouc_M
SMILES=O=C(N/C(C1=N[C@@H]2CS1)=C\C)C(C(C)O)NC(C3=CSC([C@@](NC4=O)(CC5)[C@@H](C6=CSC(C(C(C)OC(C7=NC([C@@H](O)[C@@H]8NC(C(C)C)C(NC(C(NC(C(N[C@@]4([H])C)=O)=C)=O)=C)=O)=C(C=C8)C(CO)=C7)=O)NC(C9=CSC(C([C@@](O)(C)[C@@H](C)O)NC2=O)=N9)=O)=N6)N=C5C%10=NC(C(NC(C(NC(C(N)=O)=C)=O)=C)=O)=CS%10)=N3)=O
INCHI=GZXVYCZTRLJOKW-IVYZNNTRSA-N
INCHIAUX=N/A
PUBMED=33496580
SUBMITUSER=SoniaMaffioli
LIBRARYQUALITY=3
SPECTRUMID=CCMSLIB00005716856
SCANS=1
165.062485	164.0
174.053329	224.0
182.089935	124.0
192.063187	417.0
193.058746	301.0
194.051941	83.0
195.02359	78.0
202.049072	293.0
203.048828	104.0
206.034409	82.0
208.052887	64.0
220.058502	2848.0
221.060455	561.0
226.063065	80.0
227.097839	57.0
229.133392	84.0
238.115219	86.0
245.131317	105.0
250.061783	52.0
254.057465	102.0
255.111664	136.0
260.033295	56.0
273.124237	1405.0
274.124542	353.0
278.063263	70.0
289.117645	57.0
291.130951	1713.0
292.140503	200.0
293.062012	55.0
305.273468	57.0
306.042999	86.0
307.562561	67.0
308.647034	51.0
309.049957	61.0
318.540497	52.0
320.056122	52.0
323.051422	56.0
326.547852	63.0
333.042786	96.0
334.0495	59.0
341.431	55.0
344.549164	54.0
347.089874	91.0
350.056244	54.0
352.059052	53.0
360.078308	110.0
361.061371	104.0
370.130463	104.0
375.03363	70.0
379.051971	85.0
380.068085	90.0
385.026123	58.0
388.146545	424.0
389.035858	141.0
389.138458	97.0
394.061462	65.0
397.081818	61.0
400.09964	53.0
400.590485	50.0
402.049744	77.0
410.050903	63.0
430.068298	282.0
431.063599	105.0
432.064484	85.0
440.045685	117.0
441.04422	56.0
443.062286	71.0
445.072906	95.0
449.074066	65.0
457.091187	56.0
458.045959	93.0
459.068848	559.0
460.076752	240.0
461.074097	76.0
467.044312	66.0
473.070374	65.0
474.078949	60.0
476.075531	57.0
477.101074	97.0
478.080688	56.0
480.07016	106.0
482.104706	53.0
483.105103	173.0
485.075562	54.0
489.082886	51.0
493.076477	61.0
494.056213	57.0
495.086945	64.0
496.082367	70.0
499.079834	81.0
502.119171	59.0
503.093323	116.0
503.59549	53.0
511.078217	180.0
512.091797	81.0
515.11792	55.0
519.031677	50.0
524.10199	53.0
526.110413	62.0
529.114929	353.0
530.112183	83.0
537.108643	51.0
539.419434	55.0
546.097412	64.0
547.122375	621.0
548.117798	184.0
549.114075	118.0
550.121765	101.0
550.613159	56.0
554.111938	72.0
555.108704	70.0
558.083069	62.0
558.612671	54.0
559.120178	78.0
563.074951	52.0
565.120789	57.0
567.145447	100.0
567.629822	51.0
568.1297	68.0
571.128601	58.0
571.646667	52.0
572.113464	80.0
575.111328	90.0
575.642517	79.0
581.131042	172.0
581.639099	168.0
582.13739	142.0
584.123535	62.0
592.114624	95.0
593.136719	110.0
593.62323	138.0
594.614563	66.0
601.651367	90.0
603.163025	73.0
607.128174	58.0
607.622375	52.0
608.115601	86.0
615.629883	99.0
616.141174	85.0
616.63739	53.0
617.140076	55.0
621.144409	55.0
628.131836	52.0
643.143555	85.0
650.167725	72.0
662.515198	51.0
700.694519	59.0
716.661377	51.0
728.147034	53.0
747.667603	55.0
748.700195	64.0
751.12262	53.0
761.182129	53.0
765.68811	75.0
766.172424	59.0
769.197083	78.0
775.2005	60.0
787.682983	76.0
976.186096	61.0
1022.196106	56.0
1161.262207	120.0
1162.248779	78.0
1195.226807	70.0
1230.300049	92.0
END IONS


BEGIN IONS
PEPMASS=2157.12
CHARGE=1
MSLEVEL=2
SOURCE_INSTRUMENT=LC-ESI-qTof
FILENAME=f.SoniaMaffioli/reference_spectra/reference_spectra/d0601234-54f7-42cf-bc6e-7492183851b9.mgf;
SEQ=*..*
IONMODE=Positive
ORGANISM=GNPS-LIBRARY
NAME=Sphaericin M+H
PI=Maffioli/NAICONS
DATACOLLECTOR=Zdouc_M
SMILES=O=C(N[C@H](CC1=CC=C(O)C=C1)C(N[C@@H](CC2=CC=CC=C2)C(N(CCC3)C3C(N[C@@H]([C@](CC)([H])C)C(O)=O)=O)=O)=O)[C@H](CC4=CNC5=C4C=CC=C5)NC(CNC([C@H](CO)NC(C6N(CCC6)C([C@H](CCCNC(N)=N)NC([C@@H](CCC(NC7)=O)NC([C@H]([C@](CC)([H])C)NC([C@@H](CC8=CNC9=C8C=CC=C9)NC([C@H](CC%10=CNC%11=C%10C=CC=C%11)NC(CNC([C@H]([C@](CC)([H])C)NC(C%12N(CCC%12)C([C@H](CC(C)C)NC7=O)=O)=O)=O)=O)=O)=O)=O)=O)=O)=O)=O)=O
INCHI=LWGFCRLDHIFNQK-OTDJLLNESA-N
INCHIAUX=N/A
PUBMED=33496580
SUBMITUSER=SoniaMaffioli
LIBRARYQUALITY=3
SPECTRUMID=CCMSLIB00005716857
SCANS=1
159.08345	54.0
217.089645	51.0
229.150833	77.0
268.165497	55.0
367.086456	50.0
376.228973	139.0
426.24231	122.0
428.25528	53.0
430.206909	50.0
454.246094	145.0
455.240234	72.0
504.279022	84.0
544.284851	57.0
549.283447	51.0
563.262207	63.0
581.303955	60.0
591.255981	131.0
592.258362	160.0
612.315125	107.0
624.341309	103.0
640.322144	291.0
641.315308	92.0
666.298462	60.0
690.356079	177.0
691.378906	82.0
705.398743	56.0
710.333008	82.0
711.325073	81.0
721.362	66.0
725.421509	58.0
730.327881	70.0
735.458008	50.0
738.318665	360.0
739.322998	140.0
740.27417	56.0
753.404419	194.0
754.401245	56.0
782.431152	65.0
848.407349	58.0
876.424927	79.0
877.432556	74.0
921.450806	166.0
922.463257	71.0
923.516113	56.0
924.488708	57.0
935.467773	53.0
948.445496	78.0
966.467529	389.0
967.476135	234.0
968.451538	51.0
987.544678	59.0
989.548828	83.0
990.521545	104.0
1006.524963	56.0
1007.522827	87.0
1034.541504	238.0
1035.559204	144.0
1036.538086	80.0
1060.5177	209.0
1061.506836	83.0
1064.520508	60.0
1090.059326	118.0
1105.526245	198.0
1106.548706	114.0
1107.53833	86.0
1113.80896	54.0
1118.63916	57.0
1145.617188	97.0
1146.615845	127.0
1147.586304	99.0
1148.617798	119.0
1149.597534	65.0
1151.086426	54.0
1158.523071	55.0
1159.510498	60.0
1162.648438	162.0
1163.634033	85.0
1163.862793	63.0
1164.634277	93.0
1173.599976	510.0
1174.616577	410.0
1175.603149	200.0
1176.610474	67.0
1190.630615	766.0
1191.639771	662.0
1192.656738	326.0
1276.663452	53.0
1303.633301	52.0
1327.88501	62.0
1346.719116	131.0
1347.732788	132.0
1348.738647	51.0
1357.696655	57.0
1374.727661	503.0
1375.719604	299.0
1376.706421	132.0
1387.7146	51.0
1431.745972	78.0
1432.768188	97.0
1514.772705	62.0
1547.391479	68.0
1555.493408	62.0
1572.823608	68.0
1573.87085	50.0
1589.840698	66.0
1617.604736	59.0
1618.897827	72.0
1641.018555	52.0
1644.048706	51.0
1665.648315	51.0
1671.218018	81.0
1674.334351	52.0
1686.915771	58.0
1711.612061	51.0
1726.539429	50.0
1733.538208	53.0
1740.598633	53.0
1752.880127	58.0
1753.906006	82.0
1754.914551	66.0
1764.884766	94.0
1765.846069	61.0
1769.333374	50.0
1769.718872	78.0
1773.117676	51.0
1780.890991	90.0
1781.875732	98.0
1783.852417	51.0
1793.028564	60.0
1798.80896	51.0
1801.018921	55.0
1814.243774	55.0
1833.69812	51.0
1843.953125	60.0
1872.091919	58.0
1880.043823	57.0
1883.945801	66.0
1890.994995	56.0
1893.62146	55.0
1895.789917	65.0
1899.940674	70.0
1900.947388	78.0
1910.947754	103.0
1911.914062	72.0
1912.921997	77.0
1925.344482	77.0
1926.534912	52.0
1927.965088	122.0
1929.931396	106.0
1935.043701	60.0
1937.710693	60.0
1944.762817	50.0
1987.952026	50.0
1998.614014	54.0
2004.994019	59.0
2031.031982	76.0
2043.026489	185.0
2044.004028	265.0
2044.323853	66.0
2044.986328	155.0
2045.685059	53.0
2046.046509	101.0
2048.247559	50.0
2066.555908	61.0
2078.047119	58.0
2108.872559	68.0
2111.122559	53.0
2112.108154	64.0
2112.743408	56.0
2128.066406	224.0
2129.10083	305.0
2130.081787	184.0
2131.100098	70.0
2135.970459	52.0
2138.110352	73.0
2139.064697	137.0
2140.08374	219.0
2141.08667	121.0
2142.059082	56.0
2143.135498	64.0
2144.093994	63.0
2144.412842	59.0
2145.254395	65.0
2145.511475	78.0
2146.881348	65.0
2147.483643	53.0
2147.483643	57.0
2147.483643	57.0
2147.483643	61.0
2147.483643	61.0
2147.483643	73.0
2147.483643	79.0
2147.483643	80.0
2147.483643	81.0
2147.483643	85.0
2147.483643	86.0
2147.483643	88.0
2147.483643	88.0
2147.483643	97.0
2147.483643	110.0
2147.483643	128.0
2147.483643	137.0
2147.483643	703.0
2147.483643	3061.0
2147.483643	9923.0
2147.483643	22184.0
2147.483643	25403.0
2147.483643	33813.0
END IONS


BEGIN IONS
PEPMASS=1079.06
CHARGE=2
MSLEVEL=2
SOURCE_INSTRUMENT=LC-ESI-qTof
FILENAME=f.SoniaMaffioli/reference_spectra/reference_spectra/6a585314-2cef-445a-9833-c921a422fae6.mgf;
SEQ=*..*
IONMODE=Positive
ORGANISM=GNPS-LIBRARY
NAME=Sphaericin M+2H+2
PI=Maffioli/NAICONS
DATACOLLECTOR=Zdouc_M
SMILES=O=C(N[C@H](CC1=CC=C(O)C=C1)C(N[C@@H](CC2=CC=CC=C2)C(N(CCC3)C3C(N[C@@H]([C@](CC)([H])C)C(O)=O)=O)=O)=O)[C@H](CC4=CNC5=C4C=CC=C5)NC(CNC([C@H](CO)NC(C6N(CCC6)C([C@H](CCCNC(N)=N)NC([C@@H](CCC(NC7)=O)NC([C@H]([C@](CC)([H])C)NC([C@@H](CC8=CNC9=C8C=CC=C9)NC([C@H](CC%10=CNC%11=C%10C=CC=C%11)NC(CNC([C@H]([C@](CC)([H])C)NC(C%12N(CCC%12)C([C@H](CC(C)C)NC7=O)=O)=O)=O)=O)=O)=O)=O)=O)=O)=O)=O)=O
INCHI=LWGFCRLDHIFNQK-OTDJLLNESA-N
INCHIAUX=N/A
PUBMED=
SUBMITUSER=SoniaMaffioli
LIBRARYQUALITY=3
SPECTRUMID=CCMSLIB00005716858
SCANS=1
136.068573	70.0
152.337067	56.0
159.090271	923.0
183.148483	1710.0
184.149277	193.0
198.103409	52.0
209.128357	56.0
211.136917	679.0
214.092133	79.0
216.101685	170.0
217.127701	337.0
228.087112	61.0
228.164078	56.0
229.148102	10218.0
230.148483	1024.0
231.157181	195.0
233.147766	52.0
237.072739	56.0
239.163727	52.0
242.104095	142.0
244.104095	500.0
245.119141	449.0
246.124512	122.0
251.133438	65.0
251.210419	160.0
255.146423	58.0
256.141144	88.0
261.109314	50.0
263.128784	95.0
266.111725	57.0
268.165924	1941.0
269.165222	370.0
271.11499	90.0
272.173126	188.0
273.118378	56.0
281.15509	56.0
283.146423	619.0
284.155121	177.0
285.198669	325.0
287.886871	52.0
289.163483	53.0
290.968414	52.0
299.135162	59.0
300.176971	101.0
306.170929	83.0
308.139771	50.0
311.146606	170.0
312.158905	58.0
313.143158	82.0
322.161346	218.0
324.211365	73.0
325.171661	132.0
329.214752	67.0
331.165802	62.0
334.17923	72.0
335.186371	66.0
339.192383	134.0
341.180542	66.0
345.186279	157.0
346.190521	50.0
350.173004	102.0
351.161163	90.0
357.206329	106.0
358.211487	93.0
362.160553	54.0
367.189392	155.0
369.202759	53.0
373.176025	202.0
376.230896	3150.0
377.238434	561.0
378.243256	158.0
379.252106	63.0
381.254059	95.0
385.229065	51.0
396.222382	64.0
398.237274	68.0
400.204193	680.0
401.212067	137.0
402.204651	98.0
407.187225	279.0
408.180206	68.0
410.269165	119.0
415.253998	50.0
424.213043	99.0
426.250824	1398.0
427.256927	421.0
428.209259	367.0
429.195129	163.0
430.195099	319.0
431.199554	103.0
434.200531	74.0
437.221893	64.0
447.246094	56.0
448.258667	70.0
451.222351	56.0
452.194122	72.0
454.246429	696.0
455.23761	227.0
464.28598	85.0
466.234375	102.0
467.273254	100.0
468.275879	69.0
469.208069	74.0
481.751587	52.0
483.274139	113.0
494.21405	85.0
495.304718	52.0
496.215942	54.0
498.228638	60.0
504.26413	108.0
507.674347	56.0
511.258484	105.0
512.248474	82.0
512.764648	71.0
514.38501	50.0
522.30957	72.0
525.26416	73.0
527.245483	53.0
529.342529	53.0
532.266968	82.0
535.292786	54.0
538.801331	62.0
539.280701	306.0
540.285767	74.0
541.289917	86.0
543.249695	71.0
544.272339	111.0
547.257019	76.0
548.29248	57.0
549.279541	61.0
550.333252	55.0
552.799133	99.0
553.262817	111.0
554.23877	104.0
555.240234	80.0
556.297058	297.0
557.294617	223.0
562.289612	54.0
563.261292	454.0
564.260315	181.0
565.265259	78.0
567.330261	76.0
568.32135	86.0
568.7854	54.0
569.337036	54.0
575.265381	59.0
577.263672	92.0
580.319275	53.0
582.107727	54.0
582.334106	70.0
583.318604	68.0
584.290344	61.0
588.294312	93.0
591.249268	493.0
592.258667	185.0
593.253113	76.0
593.796082	68.0
594.291504	56.0
594.832825	82.0
595.824524	180.0
596.332275	213.0
597.79895	55.0
602.826904	59.0
603.32428	71.0
606.324951	65.0
607.303223	53.0
609.34552	63.0
611.808411	73.0
612.323364	501.0
613.328735	84.0
617.336914	76.0
622.194763	53.0
622.830078	59.0
623.329895	66.0
624.338989	111.0
625.343567	144.0
628.744507	50.0
630.869385	77.0
631.330566	79.0
631.825012	71.0
632.344727	97.0
633.805237	55.0
634.325256	101.0
635.791504	50.0
636.345947	133.0
636.827332	76.0
639.832336	53.0
640.325806	522.0
641.331299	201.0
642.327271	74.0
645.850159	135.0
645.978455	56.0
646.335449	111.0
646.840637	75.0
648.359314	76.0
650.834473	51.0
651.333435	75.0
651.802795	65.0
653.336426	51.0
655.831665	60.0
659.333435	63.0
659.845215	129.0
660.353027	85.0
660.852173	90.0
663.204163	52.0
664.524719	52.0
664.844482	65.0
666.363037	72.0
670.834778	52.0
672.388	63.0
674.868225	138.0
675.357971	57.0
676.863342	106.0
679.350159	74.0
682.351501	154.0
684.368713	50.0
686.806641	53.0
687.864258	77.0
688.38916	138.0
689.363342	98.0
690.360657	206.0
690.853516	73.0
691.358459	79.0
693.399597	103.0
696.687134	52.0
700.797363	61.0
702.386719	133.0
702.905945	178.0
703.385681	125.0
703.890381	55.0
704.354736	116.0
705.365479	53.0
707.36908	96.0
707.892212	109.0
708.394592	60.0
709.407654	72.0
710.335938	482.0
711.331604	225.0
712.33728	109.0
713.374817	84.0
716.093018	53.0
716.382019	257.0
716.889343	109.0
717.38562	96.0
718.39032	60.0
719.3526	217.0
720.377258	144.0
720.832764	50.0
721.867065	62.0
723.888489	50.0
724.88324	99.0
725.392761	170.0
725.890991	86.0
726.388733	134.0
727.384094	72.0
727.874207	84.0
729.865662	71.0
730.377869	62.0
730.914307	52.0
731.377808	84.0
731.870789	67.0
732.391174	58.0
734.383911	50.0
735.37561	108.0
736.385986	64.0
736.890015	59.0
737.428162	97.0
738.34314	339.0
738.891235	245.0
739.347229	246.0
739.889404	132.0
740.358582	94.0
741.386353	63.0
743.88324	63.0
747.361023	205.0
748.373108	157.0
750.889648	122.0
751.387268	61.0
751.90332	65.0
752.87384	200.0
753.404602	488.0
754.405884	161.0
755.404541	82.0
755.898315	74.0
757.881226	50.0
758.896729	79.0
763.910278	50.0
764.89856	57.0
766.402832	83.0
767.428345	53.0
769.377747	60.0
772.895569	106.0
773.404968	100.0
773.923767	130.0
774.558533	50.0
777.402588	66.0
778.366638	75.0
781.426331	436.0
781.920898	266.0
782.418579	228.0
782.929443	107.0
783.931702	83.0
784.415161	85.0
785.898743	58.0
786.38678	90.0
786.884155	77.0
787.428101	92.0
787.904175	117.0
788.443115	93.0
792.407288	51.0
793.411255	72.0
794.914246	59.0
795.424744	1601.0
795.927612	1530.0
796.427551	743.0
796.920532	255.0
797.432556	144.0
797.912598	63.0
798.419434	108.0
800.424438	56.0
801.423523	91.0
803.363586	50.0
804.418091	57.0
805.893555	50.0
808.401245	52.0
809.420471	1837.0
809.916931	1470.0
810.424072	1234.0
810.90979	302.0
811.410339	126.0
812.432129	140.0
815.927246	71.0
817.407043	53.0
818.415955	104.0
818.923828	85.0
819.404114	91.0
820.422913	199.0
820.898743	252.0
821.146667	50.0
821.43335	122.0
823.398132	83.0
823.925354	86.0
825.4104	65.0
826.411438	116.0
826.933533	66.0
829.422302	75.0
829.928284	57.0
831.927124	57.0
832.418152	355.0
832.920166	170.0
833.924072	58.0
834.415955	249.0
834.927307	207.0
835.415588	130.0
835.888367	56.0
837.421631	134.0
839.448303	69.0
841.408081	54.0
844.433228	60.0
845.417847	59.0
845.925354	96.0
846.431274	64.0
849.408081	130.0
850.432678	60.0
851.397522	92.0
856.910706	60.0
857.439148	51.0
858.524536	53.0
859.403687	76.0
859.929871	50.0
862.954163	295.0
863.448425	157.0
863.960449	68.0
865.444641	73.0
866.424133	379.0
867.430847	251.0
867.936951	80.0
868.416809	125.0
868.956726	91.0
871.432007	102.0
871.957642	67.0
872.448364	88.0
875.684631	55.0
876.43573	78.0
876.718567	77.0
876.953308	1364.0
877.208252	102.0
877.459473	1127.0
877.955078	563.0
878.452332	330.0
879.449036	74.0
879.953613	61.0
880.437683	58.0
881.953308	61.0
882.444031	65.0
884.962402	52.0
885.955078	65.0
887.290466	68.0
890.486816	76.0
890.731384	54.0
890.953674	2966.0
891.45105	2684.0
891.954773	1536.0
892.458191	695.0
892.946655	206.0
893.948608	202.0
894.434937	286.0
894.936462	123.0
895.453186	131.0
900.933472	51.0
904.492981	58.0
907.937439	464.0
908.439575	551.0
908.932861	141.0
909.450195	155.0
915.407837	59.0
921.459229	209.0
922.454529	162.0
924.512512	50.0
928.502563	72.0
929.0224	51.0
932.280884	66.0
935.494446	52.0
936.480042	410.0
936.989319	706.0
937.488953	425.0
937.6922	54.0
937.985107	191.0
938.514648	70.0
941.965393	101.0
942.498962	98.0
943.503601	55.0
950.198059	56.0
950.490479	4053.0
950.99054	4323.0
951.493042	2677.0
951.993347	1281.0
952.490723	385.0
952.993774	95.0
955.984802	76.0
956.483521	74.0
957.450134	52.0
963.507141	71.0
964.483765	1475.0
964.986267	2084.0
965.487305	1554.0
965.984985	574.0
966.467834	708.0
966.6745	75.0
966.985779	135.0
967.461975	302.0
968.480469	134.0
970.915466	54.0
973.478516	65.0
974.485962	59.0
977.413391	64.0
980.505981	111.0
982.523376	69.0
984.191162	63.0
990.49823	86.0
991.536255	79.0
992.520386	50.0
994.027222	68.0
994.494202	55.0
999.506653	72.0
1000.504456	114.0
1002.563049	93.0
1003.531921	50.0
1005.553101	129.0
1006.55249	204.0
1007.534912	110.0
1008.030579	94.0
1009.014526	84.0
1011.424744	69.0
1013.007935	156.0
1013.517395	211.0
1014.02887	193.0
1014.302063	50.0
1014.529053	92.0
1015.043823	63.0
1020.483154	51.0
1022.017822	153.0
1022.526733	259.0
1023.015564	101.0
1023.529419	117.0
1024.057983	55.0
1027.535767	50.0
1028.478882	59.0
1034.515625	344.0
1035.355103	91.0
1035.537598	158.0
1036.519165	95.0
1049.317627	61.0
1049.515869	62.0
1051.503052	112.0
1052.52002	98.0
1056.037598	139.0
1056.565552	72.0
1057.047729	93.0
1058.074097	57.0
1064.556274	666.0
1065.06311	940.0
1065.563843	479.0
1066.054321	314.0
1066.557251	114.0
1067.098022	52.0
1067.537964	56.0
1068.506958	55.0
1069.553955	210.0
1070.059937	325.0
1070.538208	145.0
1071.065063	102.0
1071.56543	67.0
1077.365967	53.0
1077.544189	158.0
1078.556885	2765.0
1079.056396	3567.0
1079.559937	2364.0
1080.058594	1092.0
1080.558838	509.0
1081.053833	111.0
1082.091187	63.0
1084.252197	53.0
1088.93689	51.0
1101.238403	53.0
1104.554077	98.0
1105.553223	115.0
1108.622681	52.0
1108.990723	52.0
1109.568604	76.0
1113.580322	50.0
1114.567749	66.0
1119.576172	78.0
1120.569458	102.0
1121.593872	51.0
1122.566528	417.0
1123.557495	302.0
1124.598267	76.0
1132.587158	57.0
1134.644653	93.0
1136.6073	105.0
1137.586792	107.0
1147.546875	89.0
1148.576904	71.0
1149.571045	62.0
1153.071533	52.0
1162.633667	214.0
1163.652832	132.0
1164.59375	170.0
1165.620972	61.0
1174.605591	64.0
1176.565552	65.0
1177.645996	59.0
1190.377686	55.0
1190.635742	945.0
1191.635132	654.0
1192.639771	240.0
1193.630371	217.0
1194.584839	73.0
1221.546631	65.0
1233.640503	83.0
1245.683716	57.0
1248.614868	57.0
1260.618896	55.0
1261.627686	110.0
1262.641235	76.0
1263.618896	54.0
1271.651855	55.0
1277.557861	52.0
1290.632568	97.0
1291.618408	55.0
1300.585938	55.0
1318.665894	137.0
1319.668701	59.0
1320.631958	58.0
1327.624878	86.0
1329.64978	51.0
1333.624878	67.0
1337.703247	52.0
1339.956787	55.0
1351.671387	66.0
1352.677246	73.0
1358.716675	50.0
1359.679077	53.0
1374.711426	104.0
1375.703979	278.0
1376.689087	105.0
1379.661011	71.0
1380.68042	88.0
1403.71228	178.0
1404.708008	132.0
1406.70752	64.0
1408.681519	50.0
1418.710327	137.0
1419.709595	98.0
1430.659912	55.0
1431.723877	403.0
1432.716797	293.0
1433.730957	106.0
1434.729126	53.0
1446.688354	95.0
1447.686279	84.0
1448.708862	54.0
1449.410034	56.0
1449.71106	58.0
1476.726929	96.0
1481.908325	50.0
1488.758789	115.0
1489.765503	99.0
1501.746948	62.0
1505.711304	87.0
1516.735107	126.0
1522.984253	64.0
1543.740967	109.0
1555.575439	52.0
1561.828613	96.0
1563.826538	64.0
1589.807617	166.0
1590.799438	215.0
1591.823853	52.0
1606.74646	51.0
1617.801147	312.0
1618.80481	351.0
1619.805664	205.0
1620.833252	53.0
1636.544922	57.0
1638.009521	63.0
1640.737183	56.0
1651.812134	71.0
1652.80481	60.0
1654.803467	53.0
1661.807129	82.0
1662.800415	91.0
1663.814697	61.0
1667.776855	66.0
1674.815308	81.0
1675.858398	77.0
1689.781006	82.0
1697.522949	50.0
1702.831543	74.0
1720.745483	58.0
1724.882324	56.0
1725.8573	93.0
1752.890625	109.0
1753.865601	101.0
1754.871704	145.0
1780.83667	387.0
1781.845947	321.0
1782.861694	132.0
1783.851074	100.0
1815.823242	51.0
1871.911865	76.0
1872.924561	57.0
1873.908691	67.0
1876.228149	57.0
1900.921021	196.0
1901.93457	81.0
1918.94751	108.0
1927.905396	293.0
1928.922485	374.0
1929.918945	324.0
1930.873901	85.0
1946.904785	57.0
2125.286377	64.0
END IONS

BEGIN IONS
PEPMASS=522.198
CHARGE=1
MSLEVEL=2
SOURCE_INSTRUMENT=LC-ESI-qTof
FILENAME=f.SoniaMaffioli/reference_spectra/reference_spectra/0ea9fbd1-f2a3-4c82-97c0-ed1d6d56c44e.mgf;
SEQ=*..*
IONMODE=Positive
ORGANISM=GNPS-LIBRARY
NAME=Biarylitide YYH M+H
PI=Maffioli/NAICONS
DATACOLLECTOR=Zdouc_M
SMILES=OC(C(CC1=CN=C2N1)NC(C(CC3=CC=C(O)C=C3)NC(C(CC4=CC=C(O)C2=C4)NC(C)=O)=O)=O)=O
INCHI=ZPRWGNIYRGILHV-UHFFFAOYSA-N
INCHIAUX=N/A
PUBMED=33321099
SUBMITUSER=SoniaMaffioli
LIBRARYQUALITY=3
SPECTRUMID=CCMSLIB00005877201
SCANS=1
198.076492	201.0
199.084961	572.0
200.08786	284.0
214.094604	583.0
215.098938	183.0
216.106583	335.0
226.095749	115.0
227.100296	132.0
228.110779	780.0
229.112717	151.0
241.118622	424.0
242.124619	553.0
243.121902	3068.0
244.11644	666.0
245.137512	462.0
252.108902	146.0
254.11792	308.0
255.119049	235.0
257.112152	279.0
258.119019	332.0
260.100647	1007.0
261.112549	309.0
267.119049	250.0
269.138916	6598.0
270.133911	1501.0
271.150848	1385.0
272.138153	147.0
273.105988	155.0
274.113037	154.0
281.120392	118.0
285.132904	3439.0
286.129517	908.0
287.144562	699.0
288.146271	162.0
289.12796	4132.0
290.122437	926.0
291.123383	124.0
297.136749	219.0
298.117798	113.0
299.113678	347.0
300.103882	137.0
312.14917	198.0
313.128906	2402.0
314.129547	539.0
315.142883	5197.0
316.143311	822.0
317.137115	131.0
318.109589	106.0
325.122437	170.0
331.138947	2943.0
332.139587	620.0
341.119568	260.0
358.143311	158.0
359.133026	4548.0
360.134735	798.0
361.149017	263.0
363.170959	109.0
369.112549	213.0
406.181061	550.0
407.177734	159.0
417.153503	103.0
434.181152	393.0
435.167084	316.0
448.196014	1412.0
449.196625	688.0
450.215363	236.0
451.2146	218.0
452.193298	540.0
453.18042	149.0
461.186584	100.0
462.186188	129.0
476.190002	968.0
477.189117	344.0
478.208618	359.0
479.216797	186.0
480.187134	545.0
481.193329	241.0
494.201385	3642.0
495.203796	1118.0
496.21109	175.0
504.186462	222.0
505.187012	160.0
522.197327	9878.0
523.201172	2775.0
524.206665	450.0
END IONS


BEGIN IONS
PEPMASS=506.202
CHARGE=1
MSLEVEL=2
SOURCE_INSTRUMENT=LC-ESI-qTof
FILENAME=f.SoniaMaffioli/reference_spectra/reference_spectra/d3b514bd-d7ca-46ae-844d-9d55d6e1fa43.mgf;
SEQ=*..*
IONMODE=Positive
ORGANISM=GNPS-LIBRARY
NAME=Biarylitide YFH M+H
PI=Maffioli/NAICONS
DATACOLLECTOR=Zdouc_M
SMILES=OC(C(CC1=CN=C2N1)NC(C(CC3=CC=CC=C3)NC(C(CC4=CC=C(O)C2=C4)NC(C)=O)=O)=O)=O
INCHI=SDQMLBJBRCIBHM-UHFFFAOYSA-N
INCHIAUX=N/A
PUBMED=33321099
SUBMITUSER=SoniaMaffioli
LIBRARYQUALITY=3
SPECTRUMID=CCMSLIB00005877202
SCANS=1
199.087799	649.0
200.091019	265.0
211.091537	155.0
214.094437	738.0
215.099106	389.0
216.108627	351.0
226.084244	121.0
227.095947	146.0
228.110275	927.0
229.112762	172.0
230.128464	173.0
238.087708	129.0
239.094238	111.0
241.117691	340.0
242.126755	808.0
243.121597	3796.0
244.113556	745.0
245.131241	511.0
246.127838	114.0
252.107986	150.0
253.100861	179.0
254.120438	539.0
255.123184	389.0
256.107361	184.0
257.110413	333.0
258.118439	306.0
260.104462	1113.0
261.10614	423.0
262.116333	179.0
267.11969	143.0
269.13797	6622.0
270.137024	1860.0
271.148926	1206.0
272.119049	337.0
273.102478	250.0
274.116333	166.0
281.133911	272.0
285.132416	4965.0
286.133179	1073.0
287.141479	476.0
288.136841	121.0
289.126862	4857.0
290.12146	1289.0
291.11734	161.0
293.099426	100.0
297.122223	174.0
299.112762	398.0
300.108307	244.0
312.146362	158.0
313.126709	2636.0
314.122528	585.0
315.144073	5730.0
316.146667	1196.0
317.141022	143.0
325.121094	186.0
331.13681	4318.0
332.137848	983.0
333.141632	117.0
341.123413	262.0
345.156494	127.0
347.142761	111.0
358.150452	288.0
359.133759	6945.0
360.136902	1091.0
361.137115	138.0
369.114227	386.0
390.191315	431.0
391.175781	249.0
401.149933	101.0
402.189301	117.0
416.204376	135.0
418.191284	369.0
419.180603	336.0
420.181122	130.0
432.200256	2262.0
433.201782	569.0
434.210999	341.0
436.193909	614.0
437.183411	243.0
444.20813	149.0
446.181946	167.0
460.2005	1333.0
461.201416	464.0
462.210236	593.0
463.207275	178.0
464.193542	926.0
465.184631	290.0
478.206604	4635.0
479.205566	1295.0
480.202728	139.0
488.193481	494.0
489.199768	129.0
506.200073	12595.0
507.202057	3292.0
508.209351	617.0
END IONS

BEGIN IONS
PEPMASS=596.316
CHARGE=1
MSLEVEL=2
SOURCE_INSTRUMENT=LC-ESI-qTof
FILENAME=f.SoniaMaffioli/reference_spectra/reference_spectra/752d8db3-8ceb-4cb1-a937-033f30ca118d.mgf;
SEQ=*..*
IONMODE=Positive
ORGANISM=GNPS-LIBRARY
NAME=Chymostatinol A M+H
PI=Maffioli/NAICONS
DATACOLLECTOR=Zdouc_M
SMILES=N=C(NCC1)NC1C(NC(NC(CC2=CC=CC=C2)C(O)=O)=O)C(NC(C(C)C)C(NC(CO)CC3=CC=CC=C3)=O)=O
INCHI=KUKQXNQRXXTUEM-UHFFFAOYSA-N
INCHIAUX=N/A
PUBMED=TBA
SUBMITUSER=SoniaMaffioli
LIBRARYQUALITY=3
SPECTRUMID=CCMSLIB00005716837
SCANS=1
127.095528	374.0
152.096161	224.0
153.071976	580.0
155.08522	618.0
156.092178	60.0
166.08371	51.0
167.116165	95.0
171.092377	56.0
181.066147	2825.0
182.076309	322.0
183.070755	163.0
193.091446	169.0
198.093674	895.0
199.079041	2756.0
200.080338	141.0
209.132767	156.0
215.281235	57.0
220.105606	88.0
220.898117	52.0
226.00412	60.0
226.162811	14581.0
226.462357	69.0
226.924698	61.0
227.163895	2156.0
228.165192	266.0
233.15416	65.0
235.113449	134.0
236.136932	55.0
237.116669	89.0
249.087265	137.0
250.086929	58.0
251.173584	198.0
251.792084	50.0
251.951431	101.0
252.143707	29704.0
252.435425	73.0
252.527664	78.0
252.664703	73.0
253.145248	3833.0
254.157333	2468.0
255.158051	481.0
258.118073	139.0
259.139465	180.0
266.164581	74.0
267.485046	58.0
269.167145	90.0
270.153809	131.0
272.169647	513.0
273.17041	108.0
274.160156	116.0
277.158203	134.0
279.157745	719.0
280.13974	2618.0
281.139832	524.0
287.108459	121.0
290.191101	190.0
298.147461	1940.0
298.290253	66.0
299.1521	332.0
300.139893	738.0
301.127075	50.0
304.41098	62.0
315.674011	52.0
316.162445	1648.0
317.164215	261.0
318.155182	1888.0
319.002655	55.0
319.14743	144.0
328.137726	383.0
329.146515	193.0
330.131287	76.0
334.168182	236.0
335.171204	107.0
346.145935	2454.0
347.151001	527.0
348.150146	91.0
354.17453	449.0
355.179077	137.0
356.186615	122.0
360.815491	57.0
372.199554	61.0
385.187836	51.0
387.245148	1959.0
388.236267	709.0
389.242767	113.0
396.192352	113.0
397.200073	50.0
397.408905	52.0
399.211395	725.0
400.215179	216.0
402.946625	55.0
403.11554	70.0
403.229614	133.0
403.36145	80.0
404.855072	184.0
405.011261	174.0
405.258118	51478.0
405.850464	118.0
405.954803	92.0
406.258575	12903.0
406.798401	62.0
407.25943	1667.0
408.258728	136.0
412.574524	51.0
412.830872	50.0
413.225281	7103.0
414.228821	1562.0
415.233948	156.0
417.217163	2754.0
418.221466	630.0
419.21347	72.0
427.193512	70.0
428.825592	71.0
428.948334	59.0
429.049866	55.0
429.225372	215.0
429.825714	51.0
430.236938	134.0
430.725739	101.0
430.953766	190.0
431.237732	51420.0
431.639954	103.0
431.798096	83.0
431.959351	81.0
432.238495	16412.0
433.240601	1840.0
434.247162	95.0
445.217346	764.0
446.232666	95.0
448.252258	159.0
449.261749	128.0
456.862366	55.0
466.417755	52.0
466.96344	58.0
501.443878	57.0
505.274445	60.0
516.113464	57.0
517.387329	52.0
518.759277	56.0
538.14624	54.0
550.299377	78.0
552.247375	56.0
560.280151	72.0
578.304199	1403.0
578.941772	50.0
579.2995	324.0
580.323669	138.0
593.062683	74.0
593.304993	91.0
593.708008	57.0
594.302551	129.0
595.35907	75.0
595.456848	95.0
595.609009	91.0
595.799683	96.0
595.961853	91.0
596.314575	33943.0
596.794189	93.0
596.951538	115.0
597.315979	15845.0
597.696411	67.0
597.942627	68.0
598.319092	2872.0
598.971558	50.0
599.310425	267.0
600.329651	52.0
614.112122	50.0
618.830139	55.0
620.104553	50.0
657.860962	52.0
716.021301	52.0
740.951355	54.0
806.694336	63.0
828.050476	69.0
863.393738	59.0
END IONS


BEGIN IONS
PEPMASS=594.302
CHARGE=1
MSLEVEL=2
SOURCE_INSTRUMENT=LC-ESI-qTof
FILENAME=f.SoniaMaffioli/reference_spectra/reference_spectra/8d0540c9-dfc6-4a61-b560-a6ec7ba75301.mgf;
SEQ=*..*
IONMODE=Positive
ORGANISM=GNPS-LIBRARY
NAME=Chymostatin B M+H
PI=Maffioli/NAICONS
DATACOLLECTOR=Zdouc_M
SMILES=N=C(NCC1)NC1C(NC(NC(CC2=CC=CC=C2)C(O)=O)=O)C(NC(C(C)C)C(NC(CC3=CC=CC=C3)C=O)=O)=O
INCHI=BTAKGODFEIZKSQ-UHFFFAOYSA-N
INCHIAUX=N/A
PUBMED=33496580
SUBMITUSER=SoniaMaffioli
LIBRARYQUALITY=3
SPECTRUMID=CCMSLIB00005716838
SCANS=1
156.081436	69.0
181.072311	248.0
199.079483	178.0
214.122879	72.0
226.164246	894.0
227.162918	88.0
252.142624	2194.0
253.148224	359.0
254.158371	236.0
256.090027	53.0
258.122925	107.0
272.169067	86.0
275.141754	53.0
280.136261	149.0
298.156036	176.0
299.163635	121.0
300.141266	322.0
318.154816	96.0
328.137085	405.0
329.145416	110.0
332.155304	56.0
346.169342	94.0
385.227264	176.0
399.206055	133.0
403.242767	3572.0
404.245514	754.0
405.257965	603.0
406.274353	93.0
411.213684	366.0
412.200195	75.0
413.223206	377.0
414.229462	85.0
417.229004	154.0
429.224884	3833.0
430.223114	1004.0
431.237793	734.0
432.231354	193.0
576.28656	161.0
577.286987	72.0
592.311707	435.0
593.317871	302.0
594.301941	1689.0
595.299133	610.0
596.316711	666.0
597.322632	219.0
END IONS


BEGIN IONS
PEPMASS=610.327
CHARGE=1
MSLEVEL=2
SOURCE_INSTRUMENT=LC-ESI-qTof
FILENAME=f.SoniaMaffioli/reference_spectra/reference_spectra/63caff83-7fc0-43af-9d01-2a176400e689.mgf;
SEQ=*..*
IONMODE=Positive
ORGANISM=GNPS-LIBRARY
NAME=Chymostatinol B M+H
PI=Maffioli/NAICONS
DATACOLLECTOR=Zdouc_M
SMILES=N=C(NCC1)NC1C(NC(NC(CC2=CC=CC=C2)C(O)=O)=O)C(NC(CC(C)C)C(NC(CO)CC3=CC=CC=C3)=O)=O
INCHI=WWGFZZYPXWHLAT-UHFFFAOYSA-N
INCHIAUX=N/A
PUBMED=33496580
SUBMITUSER=SoniaMaffioli
LIBRARYQUALITY=3
SPECTRUMID=CCMSLIB00005716839
SCANS=1
127.105644	95.0
152.107635	81.0
153.079407	94.0
155.092056	139.0
169.090668	55.0
177.521057	56.0
181.068878	836.0
183.081787	60.0
189.2901	50.0
198.09906	320.0
199.079666	638.0
200.087738	72.0
207.1008	50.0
226.166595	283.0
234.117294	59.0
240.177719	3251.0
240.854828	52.0
241.177094	454.0
242.165588	54.0
251.142654	122.0
252.139282	259.0
258.11499	54.0
266.155731	7666.0
267.155243	1051.0
268.074463	52.0
268.167725	596.0
269.174744	118.0
270.769653	60.0
274.157959	51.0
280.135956	57.0
284.173035	50.0
286.183472	177.0
287.182312	103.0
293.160736	98.0
294.146057	641.0
295.143768	65.0
298.13269	57.0
300.140045	364.0
301.13208	74.0
302.153687	57.0
312.160217	626.0
313.173004	78.0
318.146484	463.0
319.151672	139.0
328.135529	418.0
329.136993	115.0
330.176483	341.0
331.177826	92.0
335.816254	56.0
342.212494	74.0
344.159027	61.0
346.145905	759.0
347.14856	228.0
349.177765	54.0
368.17691	150.0
385.228821	68.0
399.246002	211.0
400.229919	73.0
401.2565	300.0
402.259338	140.0
403.235901	852.0
404.234528	199.0
411.20639	95.0
412.201691	66.0
413.218323	374.0
417.252045	4126.0
418.259033	933.0
419.26825	10109.0
420.270325	2554.0
421.27005	354.0
425.218628	321.0
426.229797	108.0
427.235687	1603.0
428.241486	534.0
429.218384	1008.0
430.238678	170.0
431.231842	554.0
432.238159	258.0
443.067108	58.0
443.232239	3996.0
444.232635	1080.0
444.950104	65.0
445.247467	11932.0
446.062042	76.0
446.248077	2692.0
447.249176	897.0
447.428314	56.0
448.246246	153.0
459.229645	101.0
460.228699	77.0
463.254303	67.0
501.036133	54.0
544.243408	52.0
545.084961	57.0
575.305176	50.0
582.643555	51.0
590.294006	570.0
591.304321	352.0
592.316284	367.0
593.324219	101.0
594.295959	565.0
595.297668	246.0
608.309753	1980.0
609.31012	926.0
610.325867	7561.0
610.891785	54.0
611.327148	3043.0
612.32782	624.0
612.564819	52.0
613.320618	194.0
614.293396	59.0
617.663269	52.0
960.860107	56.0
1013.63562	51.0
END IONS


BEGIN IONS
PEPMASS=608.311
CHARGE=1
MSLEVEL=2
SOURCE_INSTRUMENT=LC-ESI-qTof
FILENAME=f.SoniaMaffioli/reference_spectra/reference_spectra/cc7ccd47-1284-4c69-8a71-696a96970989.mgf;
SEQ=*..*
IONMODE=Positive
ORGANISM=GNPS-LIBRARY
NAME=Chymostatin A/C M+H
PI=Maffioli/NAICONS
DATACOLLECTOR=Zdouc_M
SMILES=N=C(NCC1)N[C@@H]1[C@@H](NC(N[C@@H](CC2=CC=CC=C2)C(O)=O)=O)C(N[C@@H](CC(C)C)C(NC(CC3=CC=CC=C3)C=O)=O)=O
INCHI=MRXDGVXSWIXTQL-MSZXXECISA-N
INCHIAUX=N/A
PUBMED=33496580
SUBMITUSER=SoniaMaffioli
LIBRARYQUALITY=3
SPECTRUMID=CCMSLIB00005716840
SCANS=1
169.098557	78.0
181.070145	435.0
182.070953	83.0
198.100586	107.0
199.082016	523.0
226.176224	87.0
240.177277	2505.0
241.181641	339.0
249.122726	75.0
252.14122	123.0
266.157135	4125.0
267.1586	720.0
268.178406	180.0
274.157928	67.0
286.195038	146.0
293.168457	98.0
294.146759	302.0
295.144531	79.0
301.141174	66.0
312.158813	346.0
318.1492	140.0
324.664703	61.0
328.13501	163.0
346.149231	372.0
347.154755	75.0
356.625702	66.0
368.188507	98.0
399.240845	233.0
400.235931	106.0
401.254333	161.0
402.241577	103.0
403.236603	121.0
413.217041	99.0
417.253723	3988.0
418.256409	1069.0
419.270203	3833.0
420.268555	609.0
421.271606	115.0
424.411011	62.0
425.219757	388.0
426.226379	89.0
427.240143	588.0
428.245026	227.0
429.222443	200.0
431.239716	316.0
443.234314	4713.0
444.234985	1304.0
445.249298	3557.0
446.249573	610.0
447.239716	84.0
459.225098	60.0
590.295959	111.0
591.303467	60.0
592.308533	146.0
594.288635	120.0
608.134277	64.0
608.31073	2311.0
609.307251	1174.0
610.329468	2492.0
611.33551	771.0
612.326904	197.0
722.379944	104.0
END IONS


BEGIN IONS
PEPMASS=612.313
CHARGE=1
MSLEVEL=2
SOURCE_INSTRUMENT=LC-ESI-qTof
FILENAME=f.SoniaMaffioli/reference_spectra/reference_spectra/48fb8b95-b8a6-4147-8407-a51b074b4ec6.mgf;
SEQ=*..*
IONMODE=Positive
ORGANISM=GNPS-LIBRARY
NAME=GE-20372-A/B M+H
PI=Maffioli/NAICONS
DATACOLLECTOR=Zdouc_M
SMILES=N=C(N)NCCCC(C(NC(C(C)C)C(N[C@@H](CC1=CC=CC=C1)C=O)=O)=O)NC(NC(CC(C=C2)=CC=C2O)C(O)=O)=O
INCHI=DYNPEHYVIZVLIF-VJUVZTAMSA-N
INCHIAUX=N/A
PUBMED=33496580
SUBMITUSER=SoniaMaffioli
LIBRARYQUALITY=3
SPECTRUMID=CCMSLIB00005716841
SCANS=1
153.075485	240.0
155.082565	127.0
181.070099	748.0
182.079025	111.0
183.07077	68.0
193.088287	109.0
198.093018	125.0
199.079514	705.0
200.08461	110.0
209.136414	82.0
226.163208	3655.0
227.165649	549.0
240.17836	62.0
252.143723	8703.0
253.147095	1221.0
254.156952	757.0
255.145554	69.0
266.153595	139.0
272.169922	292.0
279.154358	444.0
280.142395	792.0
281.134491	73.0
298.145691	607.0
299.145111	112.0
303.092804	68.0
316.160095	567.0
317.176056	96.0
334.154663	447.0
335.161194	102.0
344.137268	189.0
346.152649	81.0
347.148956	71.0
354.180847	134.0
362.143341	463.0
363.148804	162.0
367.138275	62.0
381.218994	157.0
387.253082	586.0
388.23819	120.0
403.237305	112.0
405.259766	15373.0
405.792877	63.0
406.261688	3441.0
407.260712	577.0
413.226227	2788.0
414.224548	718.0
415.210022	124.0
416.21521	64.0
417.216003	65.0
421.253448	1410.0
422.257721	265.0
429.220551	163.0
430.21759	102.0
431.237793	15045.0
432.240265	3455.0
433.230774	1005.0
434.221252	156.0
435.273499	64.0
447.232025	1625.0
448.235107	520.0
461.209045	188.0
594.294006	236.0
595.29248	195.0
610.284424	65.0
612.312134	11091.0
612.575745	91.0
613.314453	4116.0
614.31543	836.0
615.294739	92.0
629.731934	78.0
694.383484	60.0
END IONS


BEGIN IONS
PEPMASS=366.19
CHARGE=1
MSLEVEL=2
SOURCE_INSTRUMENT=LC-ESI-qTof
FILENAME=f.SoniaMaffioli/reference_spectra/reference_spectra/825d367a-e028-4241-88ad-a85ca531a937.mgf;
SEQ=*..*
IONMODE=Positive
ORGANISM=GNPS-LIBRARY
NAME=KF 77AG6 M+H
PI=Maffioli/NAICONS
DATACOLLECTOR=Zdouc_M
SMILES=N=C(N)NCCC[C@H](NC(N[C@@H](CC1=CC=CC=C1)C(O)=O)=O)C(O)=O
INCHI=AFUDERYHOUWFDT-RYUDHWBXSA-N
INCHIAUX=N/A
PUBMED=33496580
SUBMITUSER=SoniaMaffioli
LIBRARYQUALITY=3
SPECTRUMID=CCMSLIB00005716842
SCANS=1
158.092407	379.0
159.073349	326.0
166.085388	288.0
173.102448	925.0
174.104752	111.0
175.11911	2707.0
176.120255	181.0
199.075485	3881.0
200.08168	348.0
201.091797	24215.0
202.092758	1756.0
203.093201	263.0
215.10939	120.0
219.098907	155.0
261.120605	254.0
303.146942	157.0
307.132233	204.0
364.170197	211.0
365.173187	143.0
366.189148	723.0
367.195862	184.0
END IONS


BEGIN IONS
PEPMASS=303.179
CHARGE=2
MSLEVEL=2
SOURCE_INSTRUMENT=LC-ESI-qTof
FILENAME=f.SoniaMaffioli/reference_spectra/reference_spectra/e049e851-5841-4350-b907-b06f425bfad8.mgf;
SEQ=*..*
IONMODE=Positive
ORGANISM=GNPS-LIBRARY
NAME=Antipain M+H
PI=Maffioli/NAICONS
DATACOLLECTOR=Zdouc_M
SMILES=N=C(N)NCCCC(C(NC(C(C)C)C(NC(CCCNC(N)=N)C=O)=O)=O)NC(NC(CC1=CC=CC=C1)C(O)=O)=O
INCHI=SDNYTAYICBFYFH-UHFFFAOYSA-N
INCHIAUX=N/A
PUBMED=33496580
SUBMITUSER=SoniaMaffioli
LIBRARYQUALITY=3
SPECTRUMID=CCMSLIB00005716843
SCANS=1
144.103409	65.0
153.07814	58.0
155.081635	66.0
161.137497	68.0
162.140488	74.0
178.124756	144.0
181.069275	122.0
191.113678	232.0
194.084656	53.0
195.087753	207.0
198.096008	103.0
199.084473	73.0
207.093155	115.0
207.64978	234.0
208.152679	75.0
209.134109	55.0
220.637207	1509.0
221.137421	268.0
226.162872	164.0
227.161514	90.0
229.159332	55.0
240.059235	72.0
252.144302	558.0
253.161545	59.0
254.161285	80.0
260.209106	226.0
271.187683	121.0
279.150726	130.0
280.136139	175.0
284.160034	60.0
285.132141	203.0
286.185425	53.0
297.164917	453.0
301.194794	56.0
303.196259	62.0
343.202057	81.0
381.219208	95.0
423.249542	162.0
424.259003	57.0
END IONS
