BEGIN IONS
PEPMASS=824.739
CHARGE=2
MSLEVEL=2
SOURCE_INSTRUMENT=LC-ESI-qTof
FILENAME=f.SoniaMaffioli/reference_spectra/reference_spectra/4b909674-1be7-4fe8-a89e-b4a62fa8bf2b.mgf;
SEQ=*..*
IONMODE=Positive
ORGANISM=GNPS-LIBRARY
NAME=Siomycin_A/Sporangiomycin M+2H
PI=Maffioli/NAICONS
DATACOLLECTOR=Zdouc_M
SMILES=O=C(C(NC(C1=CSC([C@]2(CCC(C3=NC(C(NC(C(NC(C(N)=O)=C)=O)=C)=O)=CS3)=N[C@@H]2C4=CSC(C(NC(C5=CSC(C(NC6=O)[C@@](C)([C@H](O)C)O)=N5)=O)[C@H](OC(C7=NC8=C(C([C@H](O)C)=C7)C=C[C@@H](N[C@H](C(NC(C(NC(C(N[C@]9(C)[H])=O)=C)=O)=C)=O)C(C)C)[C@@H]8O)=O)C)=N4)NC9=O)=N1)=O)C(O)C)N/C(C%10=N[C@@H]6CS%10)=C\C
INCHI=AKFVOKPQHFBYCA-FHNUDCAGSA-N
INCHIAUX=N/A
PUBMED=33496580
SUBMITUSER=SoniaMaffioli
LIBRARYQUALITY=3
SPECTRUMID=CCMSLIB00005716853
SCANS=1
141.040451	53.0
165.066971	353.0
169.040741	139.0
177.160736	58.0
182.084946	54.0
186.070358	74.0
188.06636	665.0
189.069565	106.0
193.056961	373.0
194.065948	101.0
199.084473	52.0
206.076584	874.0
207.080139	166.0
211.057556	58.0
212.136856	62.0
216.063934	796.0
217.064087	95.0
221.095718	79.0
226.060898	215.0
233.075012	53.0
233.844482	68.0
234.074539	7055.0
235.076904	966.0
236.069901	107.0
237.0448	88.0
238.119507	219.0
239.050766	57.0
239.119324	84.0
241.131088	114.0
243.145996	428.0
244.144897	99.0
247.071945	74.0
248.031143	72.0
250.057861	72.0
251.106689	78.0
259.13205	128.0
260.072052	66.0
269.128632	376.0
270.137756	74.0
274.041473	74.0
275.04425	110.0
279.02774	78.0
287.137726	2911.0
288.141235	495.0
289.155853	79.0
303.045563	110.0
304.05304	78.0
305.147949	3963.0
306.054993	59.0
306.151978	514.0
307.148163	117.0
308.056335	193.0
309.046967	81.0
317.053925	83.0
318.056152	70.0
319.054321	80.0
320.053864	55.0
321.070068	56.0
325.032196	67.0
326.074677	84.0
327.040833	127.0
331.066895	79.0
333.074707	110.0
333.536469	57.0
334.058197	87.0
336.057007	128.0
339.04007	77.0
340.064117	63.0
340.175415	55.0
341.053986	106.0
342.039368	67.0
347.038452	55.0
348.049805	57.0
349.180664	51.0
353.055054	68.0
353.557892	57.0
356.136993	64.0
357.071136	58.0
360.069733	138.0
361.059174	176.0
362.051056	112.0
364.060638	58.0
365.09726	58.0
366.141205	53.0
374.03656	96.0
376.035339	95.0
377.032257	63.0
378.070892	288.0
379.063873	180.0
379.529236	66.0
380.050598	66.0
382.067413	106.0
384.151245	288.0
385.059662	68.0
386.070496	77.0
386.547058	55.0
387.06543	112.0
388.05191	148.0
389.043518	106.0
390.057343	54.0
394.032532	58.0
396.069427	68.0
397.054535	53.0
399.099915	99.0
399.551575	63.0
401.092682	94.0
401.553558	114.0
402.164795	752.0
403.054382	70.0
403.165985	186.0
404.066803	71.0
404.166565	88.0
405.082947	57.0
407.061829	73.0
407.572205	98.0
410.047546	128.0
411.056305	83.0
412.052124	111.0
413.05365	65.0
414.056824	75.0
415.065338	81.0
416.088165	83.0
417.064575	79.0
418.080566	65.0
420.081757	82.0
421.061462	99.0
422.085602	70.0
424.097778	62.0
427.042542	69.0
428.066376	56.0
430.060822	500.0
431.072327	303.0
432.076935	82.0
433.063751	99.0
435.080231	73.0
436.072571	62.0
438.055389	50.0
440.058167	83.0
442.052155	113.0
443.064392	84.0
444.083832	85.0
444.574585	95.0
445.085175	148.0
445.570648	87.0
446.579651	81.0
447.081848	86.0
449.084015	112.0
450.047302	58.0
450.567352	57.0
451.10141	119.0
454.083099	80.0
454.167694	112.0
455.065613	52.0
457.060852	183.0
458.066071	145.0
459.068604	1254.0
460.070526	523.0
461.075897	171.0
462.065063	101.0
463.106812	63.0
465.580048	74.0
468.072205	93.0
469.080719	108.0
470.09906	64.0
471.187775	57.0
473.115295	53.0
474.075104	61.0
475.603729	50.0
476.111053	87.0
477.089203	62.0
479.068268	58.0
481.081879	84.0
482.111877	76.0
483.060303	75.0
484.124268	73.0
485.076508	159.0
488.101257	63.0
488.583618	71.0
490.105072	73.0
493.049408	60.0
494.081818	154.0
495.088776	123.0
496.124878	97.0
497.084869	95.0
498.094788	116.0
500.08902	81.0
501.112488	133.0
502.090729	68.0
503.093536	107.0
505.098083	105.0
506.598236	82.0
508.12619	59.0
510.091064	64.0
511.09903	177.0
512.091797	107.0
513.110535	61.0
518.155457	56.0
521.095276	70.0
522.107178	66.0
523.60083	53.0
524.068909	122.0
525.119751	53.0
526.127075	52.0
527.075745	79.0
528.13092	172.0
529.11554	410.0
529.473145	51.0
530.093689	183.0
531.107361	66.0
531.630066	53.0
533.104858	54.0
534.107483	65.0
535.069702	57.0
537.115845	93.0
537.632568	87.0
538.094238	102.0
539.120911	55.0
541.132996	50.0
542.120361	64.0
543.108704	86.0
545.115173	89.0
547.123291	1377.0
548.122864	587.0
549.116943	492.0
550.113647	100.0
550.61322	150.0
551.113098	51.0
551.610291	54.0
552.112366	58.0
553.106384	60.0
554.110291	98.0
554.619751	62.0
555.119385	71.0
555.636902	234.0
556.106445	93.0
558.111328	51.0
558.612061	118.0
559.124939	147.0
561.117676	69.0
561.634094	62.0
563.115906	107.0
563.615356	137.0
564.136719	260.0
565.095886	70.0
566.099182	65.0
567.132019	130.0
567.644226	148.0
568.130188	80.0
568.632751	114.0
571.111877	70.0
571.625061	115.0
572.134583	205.0
572.606873	127.0
573.123901	109.0
574.118652	50.0
575.094604	72.0
576.093872	81.0
579.120422	65.0
579.63324	156.0
581.13324	438.0
581.623901	262.0
582.12439	191.0
582.620361	105.0
583.112549	99.0
584.11908	140.0
584.63623	132.0
585.104248	79.0
585.618225	76.0
589.629761	94.0
590.105408	64.0
590.638916	71.0
593.12146	136.0
593.64032	184.0
594.132507	194.0
594.631775	81.0
595.115967	68.0
597.123535	81.0
598.14093	77.0
598.623718	195.0
599.153992	83.0
601.661316	86.0
602.155518	112.0
602.636475	137.0
604.090942	148.0
605.128235	52.0
606.651428	102.0
607.135071	352.0
607.634277	233.0
608.145081	127.0
609.113098	115.0
610.637451	81.0
611.133057	52.0
612.728149	50.0
613.138123	54.0
615.112427	68.0
615.642029	258.0
616.1521	164.0
616.634399	97.0
617.132385	105.0
618.656677	78.0
619.109924	51.0
620.12793	58.0
621.111145	81.0
624.156982	127.0
627.637451	107.0
628.639893	56.0
629.122559	80.0
630.105225	57.0
633.135437	55.0
634.135376	78.0
636.661621	91.0
641.642517	179.0
642.149902	124.0
642.661255	97.0
648.113525	51.0
650.146729	160.0
656.171997	51.0
657.182312	88.0
660.023682	59.0
666.682495	105.0
667.082458	67.0
668.125122	77.0
680.102295	71.0
683.68689	70.0
685.193054	66.0
687.116089	64.0
689.169617	70.0
700.179199	51.0
701.130432	52.0
707.145691	75.0
714.125183	50.0
714.688904	77.0
715.143921	87.0
716.187134	62.0
717.070862	64.0
719.099548	65.0
719.19812	70.0
720.182373	59.0
720.361267	54.0
723.127625	53.0
724.17981	164.0
725.186035	108.0
730.084045	88.0
732.163879	104.0
733.203369	88.0
733.706848	119.0
741.197205	73.0
741.701294	71.0
742.233521	63.0
746.199036	70.0
747.194397	85.0
748.186157	79.0
749.113708	53.0
749.708496	58.0
750.169006	51.0
750.691345	60.0
751.185364	58.0
756.20282	71.0
758.121765	54.0
758.734253	78.0
759.197815	243.0
759.731689	90.0
760.197021	91.0
763.713379	100.0
765.18573	55.0
767.705994	193.0
768.204102	117.0
770.71106	55.0
771.082397	59.0
771.738525	51.0
772.72113	95.0
773.205811	65.0
777.172119	56.0
780.191467	186.0
781.195312	117.0
781.713013	87.0
782.224426	106.0
785.207336	78.0
794.216492	82.0
798.691406	61.0
802.234192	53.0
807.721252	67.0
812.123474	56.0
816.207275	82.0
816.733582	62.0
824.49823	73.0
843.102173	54.0
846.118835	71.0
853.125793	52.0
873.137573	77.0
883.158386	55.0
888.140076	66.0
908.711365	51.0
925.871765	54.0
935.167236	53.0
983.572571	52.0
987.184143	98.0
1004.175842	80.0
1009.716797	55.0
1021.204468	84.0
1022.209106	98.0
1029.18396	57.0
1065.223267	53.0
1090.210205	69.0
1093.22644	61.0
1110.22644	78.0
1135.246826	52.0
1143.251953	84.0
1161.253784	68.0
1162.263184	125.0
1164.245605	63.0
1179.299072	65.0
1185.208984	54.0
1195.239136	103.0
1213.26062	192.0
1230.290405	211.0
1231.286011	102.0
1232.272339	54.0
1233.299194	50.0
1247.311035	113.0
1249.278687	74.0
1283.362671	55.0
1299.292236	122.0
1300.330078	97.0
1316.324829	61.0
END IONS
